126 5
10 10 10 10 10 

0 0 0 0 0 0 2 2 14 
0 0 0 0 0 0 2 3 9 
7 0 0 0 0 9 1 4 
2 0 0 0 0 3 1 5 
2 0 0 0 0 7 3 12 11 6 
5 0 0 0 0 10 1 7 
1 0 0 0 0 8 1 8 
5 0 0 0 0 8 1 10 
6 0 0 0 0 7 1 10 
5 0 0 0 0 5 1 13 
1 0 0 0 0 10 2 13 73 
8 0 0 0 0 8 1 13 
0 0 0 0 0 0 1 26 
0 0 0 0 0 0 2 15 18 
4 0 0 5 0 0 2 24 16 
9 0 0 4 0 0 1 17 
3 0 0 6 0 0 2 23 19 
9 0 0 10 0 0 2 23 21 
9 0 0 9 0 0 1 20 
9 0 0 5 0 0 1 21 
8 0 0 9 0 0 1 22 
4 0 0 10 0 0 2 25 86 
3 0 0 10 0 0 1 25 
1 0 0 7 0 0 1 25 
0 0 0 0 0 0 1 26 
0 0 0 0 0 0 2 27 39 
0 0 0 0 0 0 3 28 32 34 
5 0 0 0 1 0 1 29 
5 0 0 0 10 0 1 30 
6 0 0 0 9 0 1 31 
8 0 0 0 10 0 1 33 
9 0 0 0 7 0 1 33 
2 0 0 0 7 0 2 37 35 
8 0 0 0 7 0 1 35 
10 0 0 0 7 0 1 36 
9 0 0 0 10 0 1 38 
7 0 0 0 7 0 1 38 
0 0 0 0 0 0 1 51 
0 0 0 0 0 0 2 40 41 
8 0 0 0 0 4 1 42 
10 0 0 0 0 10 1 42 
4 0 0 0 0 4 2 47 43 
3 0 0 0 0 10 1 44 
10 0 0 0 0 8 1 45 
10 0 0 0 0 6 2 48 46 
7 0 0 0 0 6 1 49 
7 0 0 0 0 10 1 48 
3 0 0 0 0 9 1 50 
8 0 0 0 0 8 1 50 
0 0 0 0 0 0 1 51 
0 0 0 0 0 0 2 52 64 
0 0 0 0 0 0 3 53 57 60 
1 4 0 0 0 0 2 62 54 
5 8 0 0 0 0 1 55 
10 9 0 0 0 0 1 56 
10 5 0 0 0 0 1 58 
5 7 0 0 0 0 1 58 
3 7 0 0 0 0 1 59 
2 10 0 0 0 0 1 61 
2 10 0 0 0 0 1 61 
5 5 0 0 0 0 1 63 
3 10 0 0 0 0 1 63 
0 0 0 0 0 0 1 76 
0 0 0 0 0 0 2 65 74 
1 0 4 0 0 0 1 66 
9 0 3 0 0 0 2 71 67 
4 0 9 0 0 0 2 73 68 
5 0 10 0 0 0 1 69 
2 0 9 0 0 0 1 70 
5 0 7 0 0 0 1 72 
2 0 4 0 0 0 1 73 
1 0 10 0 0 0 1 75 
1 0 9 0 0 0 1 75 
2 0 10 0 0 0 1 75 
0 0 0 0 0 0 1 76 
0 0 0 0 0 0 2 77 89 
0 0 0 0 0 0 2 78 84 
3 0 0 0 0 2 2 87 79 
1 0 0 0 0 6 1 80 
2 0 0 0 0 7 2 86 81 
9 0 0 0 0 10 1 82 
8 0 0 0 0 8 1 83 
8 0 0 0 0 10 1 85 
8 0 0 0 0 7 1 85 
3 0 0 0 0 5 1 88 
2 0 0 0 0 10 1 88 
7 0 0 0 0 10 1 88 
0 0 0 0 0 0 1 101 
0 0 0 0 0 0 1 90 
3 0 0 5 0 0 1 91 
1 0 0 5 0 0 2 94 92 
1 0 0 7 0 0 1 93 
9 0 0 8 0 0 2 96 95 
8 0 0 10 0 0 1 95 
7 0 0 10 0 0 2 99 97 
7 0 0 9 0 0 1 97 
6 0 0 5 0 0 1 98 
9 0 0 7 0 0 1 100 
8 0 0 9 0 0 1 100 
0 0 0 0 0 0 1 101 
0 0 0 0 0 0 2 102 114 
0 0 0 0 0 0 2 103 105 
9 0 0 0 0 5 1 104 
8 0 0 0 0 3 2 112 106 
3 0 0 0 0 5 2 112 109 
4 0 0 0 0 10 1 107 
7 0 0 0 0 9 1 108 
5 0 0 0 0 10 1 110 
5 0 0 0 0 10 1 110 
7 0 0 0 0 6 1 111 
6 0 0 0 0 7 1 113 
8 0 0 0 0 10 1 113 
0 0 0 0 0 0 1 126 
0 0 0 0 0 0 2 115 116 
1 0 0 0 1 0 2 120 117 
9 0 0 0 7 0 2 120 117 
9 0 0 0 9 0 1 118 
10 0 0 0 4 0 1 119 
6 0 0 0 10 0 1 121 
5 0 0 0 6 0 1 121 
10 0 0 0 10 0 2 124 122 
2 0 0 0 8 0 1 123 
10 0 0 0 10 0 1 125 
1 0 0 0 10 0 1 125 
0 0 0 0 0 0 1 126 
0 0 0 0 0 0 0 
